p cnf 27 71
a 16 0
e 1 2 3 4 5 6 7 8 9 10 11 12 13 14 15 17 18 19 20 21 22 23 24 25 26 27 0
4 2 0
4 -3 0
-2 3 -4 0
-5 -1 0
-5 4 0
1 -4 5 0
-8 7 0
-8 7 0
-7 8 0
9 6 0
9 8 0
-6 -8 -9 0
11 -10 0
11 10 0
12 -9 0
12 11 0
9 -11 -12 0
-5 -12 -13 0
5 12 -13 0
-5 12 13 0
5 -12 13 0
-7 14 -15 0
7 -14 -15 0
-7 -14 15 0
7 14 15 0
16 -15 0
16 2 0
15 -2 -16 0
-3 6 -17 0
3 -6 -17 0
-3 -6 17 0
3 6 17 0
-17 -18 -19 0
17 18 -19 0
-17 18 19 0
17 -18 19 0
-3 -1 -20 0
3 1 -20 0
-3 1 20 0
3 -1 20 0
-21 -20 0
-21 -1 0
20 1 21 0
-21 -6 -22 0
21 6 -22 0
-21 6 22 0
21 -6 22 0
-19 22 -23 0
19 -22 -23 0
-19 -22 23 0
19 22 23 0
-24 -16 0
-24 23 0
16 -23 24 0
-13 24 -25 0
13 -24 -25 0
-13 -24 25 0
13 24 25 0
-26 1 0
-26 -20 0
-1 20 26 0
27 25 0
27 26 0
-25 -26 -27 0
-7 8 -18 25 -5 -6 0
13 26 8 0
-12 3 -1 17 -2 5 -8 0
10 -22 4 -26 -20 5 21 1 0
-3 17 -11 -20 6 -9 0
11 24 -21 -18 0
27 0
